
630.0
630.0
630.0
690.0
900.0
630.0
630.0
630.0
840.0
660.0
690.0
870.0
900.0
630.0
630.0
630.0
630.0
630.0
630.0
630.0
630.0
870.0
630.0
630.0
630.0
810.0
900.0
930.0
630.0
630.0
630.0
840.0
900.0
630.0
630.0
630.0
630.0
630.0
630.0
870.0
630.0
630.0
630.0
900.0
630.0
930.0
630.0
630.0
630.0
630.0
900.0
870.0
630.0
1170.0
630.0
930.0
900.0
870.0
630.0
900.0
630.0
630.0
630.0
630.0
630.0
630.0
780.0
630.0
660.0
900.0
630.0
630.0
630.0
1260.0
630.0
630.0
780.0
780.0
630.0
900.0